50

100 25 317
98 15 305
97 8 294
97 9 437
92 14 413
92 16 450
92 11 341
91 12 330
88 5 423
84 9 411
83 4 263
82 15 276
77 8 399
77 9 348
76 4 254
75 3 348
74 21 346
73 12 376
72 21 376
70 18 383
70 5 276
67 6 284
66 18 425
65 8 442
63 8 387
62 7 426
62 8 277
62 14 421
62 9 385
58 6 344
57 6 428
57 2 419
54 8 426
53 12 349
52 10 364
52 13 297
50 7 190
46 13 428
45 1 446
43 4 308
42 4 213
41 7 243
41 3 309
41 11 400
40 5 195
37 1 117
37 12 275
36 3 369
33 8 382
33 6 318
